
  22   10
  10   10   10   10   10   10   10   10   10   10

   0   0   0   0   0   0   0   0   0   0   0   2 2 14 
   9   0   0   0   0   0   0   0   0   0  10   1 3 
   1   0   0   0   0   0   0   0   0  10   0   1 4 
  10   0  10   0   0   0   0   0   0   0   0   1 5 
   6   0   0   0   0   0   0   0   0  10   0   1 6 
   2   0   0   0   0   0   0   0   0   0  10   1 7 
   9   0   0   0   0  10   0   0   0   0   0   1 8 
  10   0   0   0  10   0   0   0   0   0   0   1 9 
   9   0   0   0   0   0   0   0   0   0  10   1 10 
   7   0   0   0   0  10   0   0   0   0   0   1 11 
   6   0   0  10   0   0   0   0   0   0   0   1 12 
   2   0   0   0   0  10   0   0   0   0   0   1 13 
   4   0   0   0   0   0   0   0  10   0   0   1 15 
   4   0   0   0   0   0   0   0   0  10   0   1 15 
   8  10   0   0   0   0   0   0   0   0   0   1 16 
   4   0   0  10   0   0   0   0   0   0   0   1 17 
   8   0   0   0   0   0   0  10   0   0   0   2 21 18 
   8   0   0  10   0   0   0   0   0   0   0   1 19 
   3   0   0   0   0   0   0   0   0  10   0   1 20 
   8   0   0   0   0  10   0   0   0   0   0   1 22
   3   0   0   0   0   0   0  10   0   0   0   1 22
   0   0   0   0   0   0   0   0   0   0   0   0 
